57
24
68
47
12
27
81
2
80
89
14
63
60
18
3
87
13
5
54
85
48
63
44
37
19
30
59
7
51
18
25
45
76
65
46
43
50
68
77
27
20
70
8
57
80
56
68
47
82
31
30
22
35
45
48
80
3
7
69
62
77
20
56
84
52
57
27
57
86
12
35
38
38
80
2
56
72
85
85
39
94
61
80
2
46
34
1
51
77
19
56
41
59
23
50
11
72
41
77
3
